%%
% Autogenerated by /opt/prj/battleships-ai/src/server/solver.py, instance 4 10x10 [6] #20 <g2p3zzq1e>
% Source: https://www.puzzle-battleships.com/?size=4
%%

size = 10;
hints_num = 3;
hints = [| 1, 8 | 3, 5 | 10, 5 |];
ships_num = 10;

constr_rows = [4, 2, 1, 4, 1, 2, 0, 4, 1, 1];
constr_cols = [3, 4, 0, 0, 4, 3, 3, 1, 2, 0];

given_ships = [|
<>, <>, <>, <>, 1, |
<>, <>, <>, <>, 1, |
<>, <>, <>, <>, 1, |
<>, <>, <>, <>, 1, |
<>, <>, <>, <>, 2, |
<>, <>, <>, <>, 2, |
<>, <>, <>, <>, 2, |
<>, <>, <>, <>, 3, |
<>, <>, <>, <>, 3, |
<>, <>, <>, <>, 4  |];

